# Objective value = 1.2421285810600966e+03
x[S1,D1,P1,1] 0
x[S1,D1,P1,2] 0
x[S1,D1,P1,3] 0
x[S1,D1,P1,4] 0
x[S1,D1,P1,5] 0
x[S1,D1,P1,6] 0
x[S1,D1,P1,7] 0
x[S1,D1,P1,8] 0
x[S1,D1,P1,9] 0
x[S1,D1,P1,10] 0
x[S1,D1,P1,11] 0
x[S1,D1,P1,12] 0
x[S1,D1,P1,13] 0
x[S1,D1,P1,14] 0
x[S1,D1,P1,15] 0
x[S1,D1,P1,16] 0
x[S1,D1,P1,17] 0
x[S1,D1,P1,18] 0
x[S1,D1,P1,19] 0
x[S1,D2,P1,1] 1.5319148936170215e+01
x[S1,D2,P1,2] 1.4139999999999988e+01
x[S1,D2,P1,3] 0
x[S1,D2,P1,4] 0
x[S1,D2,P1,5] 0
x[S1,D2,P1,6] 0
x[S1,D2,P1,7] 0
x[S1,D2,P1,8] 1.5319148936170215e+01
x[S1,D2,P1,9] 1.5319148936170215e+01
x[S1,D2,P1,10] 0
x[S1,D2,P1,11] 0
x[S1,D2,P1,12] 0
x[S1,D2,P1,13] 0
x[S1,D2,P1,14] 0
x[S1,D2,P1,15] 0
x[S1,D2,P1,16] 0
x[S1,D2,P1,17] 0
x[S1,D2,P1,18] 0
x[S1,D2,P1,19] 0
x[S1,C1,P1,1] 0
x[S1,C1,P1,2] 0
x[S1,C1,P1,3] 0
x[S1,C1,P1,4] 0
x[S1,C1,P1,5] 0
x[S1,C1,P1,6] 0
x[S1,C1,P1,7] 0
x[S1,C1,P1,8] 0
x[S1,C1,P1,9] 0
x[S1,C1,P1,10] 0
x[S1,C1,P1,11] 0
x[S1,C1,P1,12] 0
x[S1,C1,P1,13] 0
x[S1,C1,P1,14] 0
x[S1,C1,P1,15] 0
x[S1,C1,P1,16] 0
x[S1,C1,P1,17] 0
x[S1,C1,P1,18] 0
x[S1,C1,P1,19] 0
x[S1,C2,P1,1] 0
x[S1,C2,P1,2] 0
x[S1,C2,P1,3] 0
x[S1,C2,P1,4] 0
x[S1,C2,P1,5] 0
x[S1,C2,P1,6] 0
x[S1,C2,P1,7] 0
x[S1,C2,P1,8] 0
x[S1,C2,P1,9] 0
x[S1,C2,P1,10] 0
x[S1,C2,P1,11] 0
x[S1,C2,P1,12] 0
x[S1,C2,P1,13] 0
x[S1,C2,P1,14] 0
x[S1,C2,P1,15] 0
x[S1,C2,P1,16] 0
x[S1,C2,P1,17] 0
x[S1,C2,P1,18] 0
x[S1,C2,P1,19] 0
x[S1,C3,P1,1] 0
x[S1,C3,P1,2] 0
x[S1,C3,P1,3] 0
x[S1,C3,P1,4] 0
x[S1,C3,P1,5] 0
x[S1,C3,P1,6] 0
x[S1,C3,P1,7] 0
x[S1,C3,P1,8] 0
x[S1,C3,P1,9] 0
x[S1,C3,P1,10] 0
x[S1,C3,P1,11] 0
x[S1,C3,P1,12] 0
x[S1,C3,P1,13] 0
x[S1,C3,P1,14] 0
x[S1,C3,P1,15] 0
x[S1,C3,P1,16] 0
x[S1,C3,P1,17] 0
x[S1,C3,P1,18] 0
x[S1,C3,P1,19] 0
x[S2,D1,P1,1] 0
x[S2,D1,P1,2] 0
x[S2,D1,P1,3] 0
x[S2,D1,P1,4] 0
x[S2,D1,P1,5] 0
x[S2,D1,P1,6] 0
x[S2,D1,P1,7] 0
x[S2,D1,P1,8] 0
x[S2,D1,P1,9] 0
x[S2,D1,P1,10] 0
x[S2,D1,P1,11] 0
x[S2,D1,P1,12] 0
x[S2,D1,P1,13] 0
x[S2,D1,P1,14] 0
x[S2,D1,P1,15] 0
x[S2,D1,P1,16] 0
x[S2,D1,P1,17] 0
x[S2,D1,P1,18] 0
x[S2,D1,P1,19] 0
x[S2,D2,P1,1] 4.9608510638297467e+00
x[S2,D2,P1,2] 1.0520000000000010e+01
x[S2,D2,P1,3] 0
x[S2,D2,P1,4] 0
x[S2,D2,P1,5] 6.1276595744680860e+00
x[S2,D2,P1,6] 0
x[S2,D2,P1,7] 8.3295744680850756e+00
x[S2,D2,P1,8] 6.1276595744680860e+00
x[S2,D2,P1,9] 1.8200000000000041e+00
x[S2,D2,P1,10] 8.1500000000000057e+00
x[S2,D2,P1,11] 1.6596808510638192e+00
x[S2,D2,P1,12] 1.2255319148936175e+01
x[S2,D2,P1,13] 0
x[S2,D2,P1,14] 1.2255319148936175e+01
x[S2,D2,P1,15] 0
x[S2,D2,P1,16] 0
x[S2,D2,P1,17] 0
x[S2,D2,P1,18] 0
x[S2,D2,P1,19] 0
x[S2,C1,P1,1] 0
x[S2,C1,P1,2] 0
x[S2,C1,P1,3] 15.19
x[S2,C1,P1,4] 10.98
x[S2,C1,P1,5] 0
x[S2,C1,P1,6] 10.85
x[S2,C1,P1,7] 6.57
x[S2,C1,P1,8] 5.62
x[S2,C1,P1,9] 14.23
x[S2,C1,P1,10] 7.9
x[S2,C1,P1,11] 11.7
x[S2,C1,P1,12] 0.79
x[S2,C1,P1,13] 0
x[S2,C1,P1,14] 0
x[S2,C1,P1,15] 0
x[S2,C1,P1,16] 11.13
x[S2,C1,P1,17] 0
x[S2,C1,P1,18] 0
x[S2,C1,P1,19] 0
x[S2,C2,P1,1] 10.99
x[S2,C2,P1,2] 5.53
x[S2,C2,P1,3] 8.6000000000001364e-01
x[S2,C2,P1,4] 5.0700000000000118e+00
x[S2,C2,P1,5] 5.7123404255319254e+00
x[S2,C2,P1,6] 0
x[S2,C2,P1,7] 0
x[S2,C2,P1,8] 3.0638297872340430e+00
x[S2,C2,P1,9] 0
x[S2,C2,P1,10] 0
x[S2,C2,P1,11] 2.6903191489361822e+00
x[S2,C2,P1,12] 0
x[S2,C2,P1,13] 0
x[S2,C2,P1,14] 0
x[S2,C2,P1,15] 0
x[S2,C2,P1,16] 0
x[S2,C2,P1,17] 0
x[S2,C2,P1,18] 0
x[S2,C2,P1,19] 0
x[S2,C3,P1,1] 0
x[S2,C3,P1,2] 0
x[S2,C3,P1,3] 0
x[S2,C3,P1,4] 0
x[S2,C3,P1,5] 0
x[S2,C3,P1,6] 0
x[S2,C3,P1,7] 0
x[S2,C3,P1,8] 0
x[S2,C3,P1,9] 0
x[S2,C3,P1,10] 0
x[S2,C3,P1,11] 0
x[S2,C3,P1,12] 0
x[S2,C3,P1,13] 0
x[S2,C3,P1,14] 0
x[S2,C3,P1,15] 0
x[S2,C3,P1,16] 0
x[S2,C3,P1,17] 0
x[S2,C3,P1,18] 0
x[S2,C3,P1,19] 0
x[D1,D2,P1,1] 0
x[D1,D2,P1,2] 0
x[D1,D2,P1,3] 0
x[D1,D2,P1,4] 0
x[D1,D2,P1,5] 0
x[D1,D2,P1,6] 0
x[D1,D2,P1,7] 0
x[D1,D2,P1,8] 0
x[D1,D2,P1,9] 0
x[D1,D2,P1,10] 0
x[D1,D2,P1,11] 0
x[D1,D2,P1,12] 0
x[D1,D2,P1,13] 0
x[D1,D2,P1,14] 0
x[D1,D2,P1,15] 0
x[D1,D2,P1,16] 0
x[D1,D2,P1,17] 0
x[D1,D2,P1,18] 0
x[D1,D2,P1,19] 0
x[D1,C1,P1,1] 0
x[D1,C1,P1,2] 0
x[D1,C1,P1,3] 0
x[D1,C1,P1,4] 0
x[D1,C1,P1,5] 0
x[D1,C1,P1,6] 0
x[D1,C1,P1,7] 0
x[D1,C1,P1,8] 0
x[D1,C1,P1,9] 0
x[D1,C1,P1,10] 0
x[D1,C1,P1,11] 0
x[D1,C1,P1,12] 0
x[D1,C1,P1,13] 0
x[D1,C1,P1,14] 0
x[D1,C1,P1,15] 0
x[D1,C1,P1,16] 0
x[D1,C1,P1,17] 0
x[D1,C1,P1,18] 0
x[D1,C1,P1,19] 0
x[D1,C2,P1,1] 0
x[D1,C2,P1,2] 0
x[D1,C2,P1,3] 0
x[D1,C2,P1,4] 0
x[D1,C2,P1,5] 0
x[D1,C2,P1,6] 0
x[D1,C2,P1,7] 0
x[D1,C2,P1,8] 0
x[D1,C2,P1,9] 0
x[D1,C2,P1,10] 0
x[D1,C2,P1,11] 0
x[D1,C2,P1,12] 0
x[D1,C2,P1,13] 0
x[D1,C2,P1,14] 0
x[D1,C2,P1,15] 0
x[D1,C2,P1,16] 0
x[D1,C2,P1,17] 0
x[D1,C2,P1,18] 0
x[D1,C2,P1,19] 0
x[D1,C3,P1,1] 0
x[D1,C3,P1,2] 0
x[D1,C3,P1,3] 0
x[D1,C3,P1,4] 0
x[D1,C3,P1,5] 0
x[D1,C3,P1,6] 0
x[D1,C3,P1,7] 0
x[D1,C3,P1,8] 0
x[D1,C3,P1,9] 0
x[D1,C3,P1,10] 0
x[D1,C3,P1,11] 0
x[D1,C3,P1,12] 0
x[D1,C3,P1,13] 0
x[D1,C3,P1,14] 0
x[D1,C3,P1,15] 0
x[D1,C3,P1,16] 0
x[D1,C3,P1,17] 0
x[D1,C3,P1,18] 0
x[D1,C3,P1,19] 0
x[D2,D1,P1,1] 0
x[D2,D1,P1,2] 0
x[D2,D1,P1,3] 0
x[D2,D1,P1,4] 0
x[D2,D1,P1,5] 0
x[D2,D1,P1,6] 0
x[D2,D1,P1,7] 0
x[D2,D1,P1,8] 0
x[D2,D1,P1,9] 0
x[D2,D1,P1,10] 0
x[D2,D1,P1,11] 0
x[D2,D1,P1,12] 0
x[D2,D1,P1,13] 0
x[D2,D1,P1,14] 0
x[D2,D1,P1,15] 0
x[D2,D1,P1,16] 0
x[D2,D1,P1,17] 0
x[D2,D1,P1,18] 0
x[D2,D1,P1,19] 0
x[D2,C1,P1,1] 0
x[D2,C1,P1,2] 0
x[D2,C1,P1,3] 0
x[D2,C1,P1,4] 0
x[D2,C1,P1,5] 0
x[D2,C1,P1,6] 0
x[D2,C1,P1,7] 0
x[D2,C1,P1,8] 0
x[D2,C1,P1,9] 0
x[D2,C1,P1,10] 0
x[D2,C1,P1,11] 0
x[D2,C1,P1,12] 0
x[D2,C1,P1,13] 0
x[D2,C1,P1,14] 0
x[D2,C1,P1,15] 0
x[D2,C1,P1,16] 0
x[D2,C1,P1,17] 0
x[D2,C1,P1,18] 0
x[D2,C1,P1,19] 0
x[D2,C2,P1,1] 0
x[D2,C2,P1,2] 0
x[D2,C2,P1,3] 4.7099999999999866e+00
x[D2,C2,P1,4] 5.1799999999999882e+00
x[D2,C2,P1,5] 3.0176595744680750e+00
x[D2,C2,P1,6] 1.18
x[D2,C2,P1,7] 0
x[D2,C2,P1,8] 6.0361702127659562e+00
x[D2,C2,P1,9] 0
x[D2,C2,P1,10] 5.85
x[D2,C2,P1,11] 7.9396808510638186e+00
x[D2,C2,P1,12] 0
x[D2,C2,P1,13] 8.54
x[D2,C2,P1,14] 0
x[D2,C2,P1,15] 0
x[D2,C2,P1,16] 0
x[D2,C2,P1,17] 0
x[D2,C2,P1,18] 0
x[D2,C2,P1,19] 0
x[D2,C3,P1,1] 0
x[D2,C3,P1,2] 0.68
x[D2,C3,P1,3] 10.35
x[D2,C3,P1,4] 9.42
x[D2,C3,P1,5] 2.93
x[D2,C3,P1,6] 6.21
x[D2,C3,P1,7] 3.29
x[D2,C3,P1,8] 0
x[D2,C3,P1,9] 4.02
x[D2,C3,P1,10] 0
x[D2,C3,P1,11] 13.69
x[D2,C3,P1,12] 11
x[D2,C3,P1,13] 3.38
x[D2,C3,P1,14] 0.89
x[D2,C3,P1,15] 9.97
x[D2,C3,P1,16] 7.01
x[D2,C3,P1,17] 0
x[D2,C3,P1,18] 0
x[D2,C3,P1,19] 0
r[S2,P1,1] 1
r[S1,P1,1] 1
r[S2,P1,2] 1
r[S1,P1,2] 1
r[S2,P1,3] 1
r[S1,P1,3] 0
r[S2,P1,4] 1
r[S1,P1,4] 0
r[S2,P1,5] 1.0000000000000002e+00
r[S1,P1,5] 0
r[S2,P1,6] 1
r[S1,P1,6] 0
r[S2,P1,7] 1
r[S1,P1,7] 0
r[S2,P1,8] 1
r[S1,P1,8] 1
r[S2,P1,9] 1
r[S1,P1,9] 1
r[S2,P1,10] 1
r[S1,P1,10] 0
r[S2,P1,11] 1
r[S1,P1,11] 0
r[S2,P1,12] 1
r[S1,P1,12] 0
r[S2,P1,13] 0
r[S1,P1,13] 0
r[S2,P1,14] 1.0000000000000002e+00
r[S1,P1,14] 0
r[S2,P1,15] 0
r[S1,P1,15] 0
r[S2,P1,16] 1
r[S1,P1,16] 0
r[S2,P1,17] 0
r[S1,P1,17] 0
r[S2,P1,18] 0
r[S1,P1,18] 0
r[S2,P1,19] 0
r[S1,P1,19] 0
l[S1,D1] 0
l[S1,D2] 1
l[S1,C1] 0
l[S1,C2] 0
l[S1,C3] 0
l[S2,D1] 0
l[S2,D2] 1
l[S2,C1] 1
l[S2,C2] 1
l[S2,C3] 0
l[D1,D2] 0
l[D1,C1] 0
l[D1,C2] 0
l[D1,C3] 0
l[D2,D1] 0
l[D2,C1] 0
l[D2,C2] 1
l[D2,C3] 1
k[S1,D1,1] 0
k[S1,D1,2] 0
k[S1,D1,3] 0
k[S1,D1,4] 0
k[S1,D1,5] 0
k[S1,D1,6] 0
k[S1,D1,7] 0
k[S1,D1,8] 0
k[S1,D1,9] 0
k[S1,D1,10] 0
k[S1,D1,11] 0
k[S1,D1,12] 0
k[S1,D1,13] 0
k[S1,D1,14] 0
k[S1,D1,15] 0
k[S1,D1,16] 0
k[S1,D1,17] 0
k[S1,D1,18] 0
k[S1,D1,19] 0
k[S1,D2,1] 5
k[S1,D2,2] 5
k[S1,D2,3] 0
k[S1,D2,4] 0
k[S1,D2,5] 0
k[S1,D2,6] 0
k[S1,D2,7] 0
k[S1,D2,8] 5
k[S1,D2,9] 5
k[S1,D2,10] 0
k[S1,D2,11] 0
k[S1,D2,12] 0
k[S1,D2,13] 0
k[S1,D2,14] 0
k[S1,D2,15] 0
k[S1,D2,16] 0
k[S1,D2,17] 0
k[S1,D2,18] 0
k[S1,D2,19] 0
k[S1,C1,1] 0
k[S1,C1,2] 0
k[S1,C1,3] 0
k[S1,C1,4] 0
k[S1,C1,5] 0
k[S1,C1,6] 0
k[S1,C1,7] 0
k[S1,C1,8] 0
k[S1,C1,9] 0
k[S1,C1,10] 0
k[S1,C1,11] 0
k[S1,C1,12] 0
k[S1,C1,13] 0
k[S1,C1,14] 0
k[S1,C1,15] 0
k[S1,C1,16] 0
k[S1,C1,17] 0
k[S1,C1,18] 0
k[S1,C1,19] 0
k[S1,C2,1] 0
k[S1,C2,2] 0
k[S1,C2,3] 0
k[S1,C2,4] 0
k[S1,C2,5] 0
k[S1,C2,6] 0
k[S1,C2,7] 0
k[S1,C2,8] 0
k[S1,C2,9] 0
k[S1,C2,10] 0
k[S1,C2,11] 0
k[S1,C2,12] 0
k[S1,C2,13] 0
k[S1,C2,14] 0
k[S1,C2,15] 0
k[S1,C2,16] 0
k[S1,C2,17] 0
k[S1,C2,18] 0
k[S1,C2,19] 0
k[S1,C3,1] 0
k[S1,C3,2] 0
k[S1,C3,3] 0
k[S1,C3,4] 0
k[S1,C3,5] 0
k[S1,C3,6] 0
k[S1,C3,7] 0
k[S1,C3,8] 0
k[S1,C3,9] 0
k[S1,C3,10] 0
k[S1,C3,11] 0
k[S1,C3,12] 0
k[S1,C3,13] 0
k[S1,C3,14] 0
k[S1,C3,15] 0
k[S1,C3,16] 0
k[S1,C3,17] 0
k[S1,C3,18] 0
k[S1,C3,19] 0
k[S2,D1,1] 0
k[S2,D1,2] 0
k[S2,D1,3] 0
k[S2,D1,4] 0
k[S2,D1,5] 0
k[S2,D1,6] 0
k[S2,D1,7] 0
k[S2,D1,8] 0
k[S2,D1,9] 0
k[S2,D1,10] 0
k[S2,D1,11] 0
k[S2,D1,12] 0
k[S2,D1,13] 0
k[S2,D1,14] 0
k[S2,D1,15] 0
k[S2,D1,16] 0
k[S2,D1,17] 0
k[S2,D1,18] 0
k[S2,D1,19] 0
k[S2,D2,1] 2.0000000000000004e+00
k[S2,D2,2] 4.0000000000000009e+00
k[S2,D2,3] 0
k[S2,D2,4] 0
k[S2,D2,5] 2
k[S2,D2,6] 0
k[S2,D2,7] 3
k[S2,D2,8] 2
k[S2,D2,9] 1
k[S2,D2,10] 3.0000000000000004e+00
k[S2,D2,11] 1
k[S2,D2,12] 4
k[S2,D2,13] 0
k[S2,D2,14] 4.0000000000000009e+00
k[S2,D2,15] 0
k[S2,D2,16] 0
k[S2,D2,17] 0
k[S2,D2,18] 0
k[S2,D2,19] 0
k[S2,C1,1] 0
k[S2,C1,2] 0
k[S2,C1,3] 5
k[S2,C1,4] 4
k[S2,C1,5] 0
k[S2,C1,6] 4
k[S2,C1,7] 3
k[S2,C1,8] 2
k[S2,C1,9] 5
k[S2,C1,10] 3
k[S2,C1,11] 4
k[S2,C1,12] 1
k[S2,C1,13] 0
k[S2,C1,14] 0
k[S2,C1,15] 0
k[S2,C1,16] 4
k[S2,C1,17] 0
k[S2,C1,18] 0
k[S2,C1,19] 0
k[S2,C2,1] 4
k[S2,C2,2] 2
k[S2,C2,3] 1
k[S2,C2,4] 1.9999999999999989e+00
k[S2,C2,5] 2
k[S2,C2,6] 0
k[S2,C2,7] 0
k[S2,C2,8] 1
k[S2,C2,9] 0
k[S2,C2,10] 0
k[S2,C2,11] 1
k[S2,C2,12] 0
k[S2,C2,13] 0
k[S2,C2,14] 0
k[S2,C2,15] 0
k[S2,C2,16] 0
k[S2,C2,17] 0
k[S2,C2,18] 0
k[S2,C2,19] 0
k[S2,C3,1] 0
k[S2,C3,2] 0
k[S2,C3,3] 0
k[S2,C3,4] 0
k[S2,C3,5] 0
k[S2,C3,6] 0
k[S2,C3,7] 0
k[S2,C3,8] 0
k[S2,C3,9] 0
k[S2,C3,10] 0
k[S2,C3,11] 0
k[S2,C3,12] 0
k[S2,C3,13] 0
k[S2,C3,14] 0
k[S2,C3,15] 0
k[S2,C3,16] 0
k[S2,C3,17] 0
k[S2,C3,18] 0
k[S2,C3,19] 0
k[D1,D2,1] 0
k[D1,D2,2] 0
k[D1,D2,3] 0
k[D1,D2,4] 0
k[D1,D2,5] 0
k[D1,D2,6] 0
k[D1,D2,7] 0
k[D1,D2,8] 0
k[D1,D2,9] 0
k[D1,D2,10] 0
k[D1,D2,11] 0
k[D1,D2,12] 0
k[D1,D2,13] 0
k[D1,D2,14] 0
k[D1,D2,15] 0
k[D1,D2,16] 0
k[D1,D2,17] 0
k[D1,D2,18] 0
k[D1,D2,19] 0
k[D1,C1,1] 0
k[D1,C1,2] 0
k[D1,C1,3] 0
k[D1,C1,4] 0
k[D1,C1,5] 0
k[D1,C1,6] 0
k[D1,C1,7] 0
k[D1,C1,8] 0
k[D1,C1,9] 0
k[D1,C1,10] 0
k[D1,C1,11] 0
k[D1,C1,12] 0
k[D1,C1,13] 0
k[D1,C1,14] 0
k[D1,C1,15] 0
k[D1,C1,16] 0
k[D1,C1,17] 0
k[D1,C1,18] 0
k[D1,C1,19] 0
k[D1,C2,1] 0
k[D1,C2,2] 0
k[D1,C2,3] 0
k[D1,C2,4] 0
k[D1,C2,5] 0
k[D1,C2,6] 0
k[D1,C2,7] 0
k[D1,C2,8] 0
k[D1,C2,9] 0
k[D1,C2,10] 0
k[D1,C2,11] 0
k[D1,C2,12] 0
k[D1,C2,13] 0
k[D1,C2,14] 0
k[D1,C2,15] 0
k[D1,C2,16] 0
k[D1,C2,17] 0
k[D1,C2,18] 0
k[D1,C2,19] 0
k[D1,C3,1] 0
k[D1,C3,2] 0
k[D1,C3,3] 0
k[D1,C3,4] 0
k[D1,C3,5] 0
k[D1,C3,6] 0
k[D1,C3,7] 0
k[D1,C3,8] 0
k[D1,C3,9] 0
k[D1,C3,10] 0
k[D1,C3,11] 0
k[D1,C3,12] 0
k[D1,C3,13] 0
k[D1,C3,14] 0
k[D1,C3,15] 0
k[D1,C3,16] 0
k[D1,C3,17] 0
k[D1,C3,18] 0
k[D1,C3,19] 0
k[D2,D1,1] 0
k[D2,D1,2] 0
k[D2,D1,3] 0
k[D2,D1,4] 0
k[D2,D1,5] 0
k[D2,D1,6] 0
k[D2,D1,7] 0
k[D2,D1,8] 0
k[D2,D1,9] 0
k[D2,D1,10] 0
k[D2,D1,11] 0
k[D2,D1,12] 0
k[D2,D1,13] 0
k[D2,D1,14] 0
k[D2,D1,15] 0
k[D2,D1,16] 0
k[D2,D1,17] 0
k[D2,D1,18] 0
k[D2,D1,19] 0
k[D2,C1,1] 0
k[D2,C1,2] 0
k[D2,C1,3] 0
k[D2,C1,4] 0
k[D2,C1,5] 0
k[D2,C1,6] 0
k[D2,C1,7] 0
k[D2,C1,8] 0
k[D2,C1,9] 0
k[D2,C1,10] 0
k[D2,C1,11] 0
k[D2,C1,12] 0
k[D2,C1,13] 0
k[D2,C1,14] 0
k[D2,C1,15] 0
k[D2,C1,16] 0
k[D2,C1,17] 0
k[D2,C1,18] 0
k[D2,C1,19] 0
k[D2,C2,1] 0
k[D2,C2,2] 0
k[D2,C2,3] 2
k[D2,C2,4] 2.0000000000000013e+00
k[D2,C2,5] 1
k[D2,C2,6] 1
k[D2,C2,7] 0
k[D2,C2,8] 1.9999999999999998e+00
k[D2,C2,9] 0
k[D2,C2,10] 2
k[D2,C2,11] 3
k[D2,C2,12] 0
k[D2,C2,13] 3
k[D2,C2,14] 0
k[D2,C2,15] 0
k[D2,C2,16] 0
k[D2,C2,17] 0
k[D2,C2,18] 0
k[D2,C2,19] 0
k[D2,C3,1] 0
k[D2,C3,2] 1
k[D2,C3,3] 4
k[D2,C3,4] 4
k[D2,C3,5] 1
k[D2,C3,6] 3
k[D2,C3,7] 2
k[D2,C3,8] 0
k[D2,C3,9] 2
k[D2,C3,10] 0
k[D2,C3,11] 5
k[D2,C3,12] 4
k[D2,C3,13] 2
k[D2,C3,14] 1
k[D2,C3,15] 4
k[D2,C3,16] 3
k[D2,C3,17] 0
k[D2,C3,18] 0
k[D2,C3,19] 0
v[S1,D1] 0
v[S1,D2] 5
v[S1,C1] 0
v[S1,C2] 0
v[S1,C3] 0
v[S2,D1] 0
v[S2,D2] 4
v[S2,C1] 5
v[S2,C2] 4
v[S2,C3] 0
v[D1,D2] 0
v[D1,C1] 0
v[D1,C2] 0
v[D1,C3] 0
v[D2,D1] 0
v[D2,C1] 0
v[D2,C2] 3
v[D2,C3] 5
